c read Graph
c width = 363
c time = 489 ms
c width = 22
c time = 981 ms
c width = 21
c time = 2389 ms
c width = 20
c time = 3600 ms
c width = 19
c time = 19609 ms
c width = 18
c time = 44394 ms
c width = 17
c time = 131482 ms
c width = 17
c time = 299891 ms
s td 552 18 668
b 1 86 599
b 2 255 259
b 3 75 513
b 4 44 449
b 5 180 437
b 6 213 437 438
b 7 208 438 439
b 8 20 439 440
b 9 206 440 441
b 10 196 441 442
b 11 250 442 443
b 12 115 443 444
b 13 148 444 445
b 14 11 445 446
b 15 61 446 447
b 16 188 447 448
b 17 87 234 448
b 18 57 139 260 261
b 19 154 262 263 264
b 20 15 266 267 268
b 21 201 268 269 272
b 22 163 277 278 279
b 23 166 280 281 282
b 24 26 285 286 287
b 25 23 287 288 291
b 26 145 291 292 295
b 27 226 297 298 299
b 28 248 299 300 302
b 29 212 309 310 313
b 30 247 313 314 316
b 31 229 317 318 319
b 32 225 319 320 321
b 33 161 324 325 326
b 34 28 328 329 330
b 35 45 331 332 333
b 36 174 333 334 336
b 37 104 340 341 342
b 38 123 342 343 344
b 39 203 344 345 347
b 40 117 348 349 351
b 41 63 351 352 353
b 42 9 353 354 355
b 43 197 355 356 359
b 44 94 359 360 362
b 45 88 362 363 365
b 46 176 366 367 369
b 47 207 371 372 374
b 48 58 374 375 377
b 49 149 380 381 382
b 50 77 382 383 384
b 51 205 389 390 393
b 52 191 394 395 399
b 53 102 399 400 401
b 54 101 402 403 405
b 55 108 408 409 410
b 56 74 412 413 414
b 57 220 419 420 427
b 58 241 427 428 429
b 59 254 429 430 431
b 60 111 432 433 436
b 61 139 203 450 451
b 62 57 139 514 515
b 63 112 518 519 520
b 64 201 525 526 528
b 65 157 535 536 538
b 66 166 540 541 542
b 67 145 552 553 554
b 68 101 557 558 559
b 69 247 569 570 571
b 70 136 572 573 574
b 71 235 577 578 579
b 72 72 581 582 583
b 73 254 587 588 589
b 74 174 590 591 593
b 75 101 203 602 603
b 76 155 603 604 610
b 77 63 610 611 613
b 78 97 613 614 616
b 79 189 616 617 619
b 80 12 619 620 623
b 81 231 623 624 633
b 82 72 639 640 641
b 83 207 641 642 643
b 84 193 643 644 645
b 85 14 646 647 656
b 86 202 659 660 661
b 87 111 661 662 663
b 88 102 665 666 668
b 89 57 139 261 515
b 90 1 167 338 339 509 511 596 597
b 91 1 167 509 510 511
b 92 111 145 167 191 200 333 338 339 505 509 511 590 596 597
b 93 104 111 123 145 191 200 333 339 505 511 590 597
b 94 104 111 123 145 191 200 333 339 432 505 590 597
b 95 104 111 123 194 200 432 597
b 96 104 123 194 597 598
b 97 111 194 200 432 436
b 98 104 111 123 145 191 287 295 333 339 342 393 401 432 505 548 554 590 663
b 99 23 104 145 191 287 295 339 342 393 401 548 554 663
b 100 23 104 145 191 339 342 393 401 548 554 663 664
b 101 23 104 105 145 191 339 342 393 401 548 551 554 664
b 102 102 104 105 145 191 339 342 393 401 551 554 664
b 103 102 105 191 393 399 401
b 104 105 191 393 394 399
b 105 102 104 105 339 342 664 668
b 106 104 339 340 342 668
b 107 52 104 339 340 668
b 108 102 105 664 665 668
b 109 102 145 551 552 554
b 110 23 105 191 548 549 551
b 111 105 191 549 550 551
b 112 23 145 287 291 295
b 113 111 123 284 287 295 333 342 388 393 401 432 502 505 545 548 554 590 663
b 114 98 106 284 287 388 393 502 505 545 548
b 115 98 106 388 393 502 503 505
b 116 106 388 389 393 502 503
b 117 205 389 393 502 503
b 118 98 106 503 504 505
b 119 98 106 284 287 545 547 548
b 120 98 284 285 287 547 548
b 121 26 285 287 547 548
b 122 98 106 545 546 547
b 123 111 123 284 295 333 342 388 401 432 502 545 554 590 659 663
b 124 111 123 254 284 295 330 333 342 388 401 432 500 502 545 554 590 659 663
b 125 123 254 284 295 330 342 388 401 429 432 500 545 554 587 590 659
b 126 254 429 432 587 589 590
b 127 254 429 431 432 589 590
b 128 40 431 432 589 590
b 129 123 237 283 284 295 330 342 388 401 429 498 500 545 554 587 659
b 130 178 237 283 284 498 500
b 131 178 237 498 499 500
b 132 123 237 283 295 330 342 388 401 429 498 544 545 554 587 659
b 133 123 237 283 295 327 330 342 382 388 401 429 494 498 544 554 587 656 659
b 134 237 327 330 382 384 388 494 495 498 656 659
b 135 77 382 384 494 495
b 136 128 237 327 330 384 388 495 498 656 659
b 137 128 327 328 330 495 497 498
b 138 128 327 328 495 496 497
b 139 223 327 328 495 496
b 140 28 328 330 497 498
b 141 128 237 384 387 388 656 658 659
b 142 128 237 384 385 387 656 658
b 143 128 384 385 656 657 658
b 144 142 384 385 656 657
b 145 128 237 385 386 387
b 146 47 387 388 658 659
b 147 123 149 241 282 283 295 327 342 382 401 429 492 494 542 544 554 587 656
b 148 123 149 241 244 282 295 327 342 378 382 401 429 488 492 542 554 587 656
b 149 149 244 378 382 488 490 492
b 150 149 244 490 491 492
b 151 149 378 380 382 488 490
b 152 378 379 380 488 489 490
b 153 91 378 379 489 490
b 154 70 379 380 488 489
b 155 123 241 244 282 295 322 327 342 378 401 429 485 488 542 554 585 587 656
b 156 90 123 241 244 282 295 322 327 342 378 401 429 485 488 542 554 585 656
b 157 90 244 322 326 327 485 488
b 158 90 322 323 326 485 486 488
b 159 90 323 326 486 487 488
b 160 90 323 324 326 486 487
b 161 161 324 326 486 487
b 162 144 322 323 485 486
b 163 90 123 241 282 295 322 342 378 401 429 485 542 554 584 585 656
b 164 123 241 282 295 322 342 378 401 427 429 485 542 554 584 656
b 165 58 123 249 276 282 295 322 342 378 401 427 481 485 535 542 554 584 656
b 166 58 166 249 276 279 282 481 485 535 542
b 167 58 157 166 249 276 279 481 485 535 542
b 168 58 157 166 276 279 481 483 485
b 169 58 166 483 484 485
b 170 157 276 279 481 482 483
b 171 157 276 277 279 482 483
b 172 163 277 279 482 483
b 173 58 157 166 249 535 539 542
b 174 157 249 535 538 539
b 175 58 166 539 540 542
b 176 166 249 279 280 282
b 177 58 123 193 249 276 295 322 342 371 378 401 427 481 535 554 584 641 656
b 178 123 193 276 295 322 342 371 401 427 481 535 554 583 584 641
b 179 123 193 276 295 322 342 370 371 401 427 481 534 535 554 583 635 637 641
b 180 123 193 276 295 319 322 342 369 370 401 427 481 534 554 583 635 637 641
b 181 123 275 276 295 319 342 369 401 427 481 532 534 554 583 635 637 638 641
b 182 275 276 532 534 554 583 635 637 638 641
b 183 275 276 532 533 534 637 638
b 184 147 532 533 637 638
b 185 137 275 276 533 534
b 186 123 220 275 295 319 342 369 401 419 427 481 532 554 583 635 638 641
b 187 123 220 235 275 295 319 342 369 401 419 481 532 554 577 583 635 638 641
b 188 220 235 577 580 583 638 641
b 189 220 235 577 579 580
b 190 580 581 583 638 639 641
b 191 72 581 583 639 641
b 192 13 580 581 638 639
b 193 123 220 235 275 295 319 342 369 401 419 481 531 532 554 577 635
b 194 123 176 220 235 275 295 319 342 369 401 419 481 531 532 554 577 635
b 195 123 176 220 235 275 295 319 342 365 369 401 419 481 531 554 577 634 635
b 196 123 176 220 235 275 295 319 342 362 365 401 419 477 481 531 554 577 634
b 197 123 136 181 215 235 275 295 319 342 362 401 415 419 477 531 554 577 634
b 198 18 123 136 181 215 275 295 319 342 362 401 415 474 477 531 554 577 634
b 199 18 123 136 181 215 275 295 319 342 362 401 415 474 531 554 572 577 634
b 200 18 123 136 273 275 295 319 342 362 401 415 473 474 530 531 554 572 634
b 201 113 273 275 473 474 530 531
b 202 113 273 274 275 530 531
b 203 253 273 274 530 531
b 204 18 123 132 136 273 295 319 342 362 401 414 415 470 473 530 554 572 634
b 205 132 136 414 415 470 472 473
b 206 132 136 470 471 472
b 207 234 414 415 472 473
b 208 18 123 132 273 295 316 317 319 342 362 401 414 470 530 554 572 634
b 209 123 132 273 295 316 317 319 342 362 401 414 470 530 554 572 633 634
b 210 229 317 319 633 634
b 211 123 132 273 295 313 316 342 362 401 414 470 530 554 569 571 572 633
b 212 123 132 273 295 313 342 362 401 411 414 470 530 554 569 571 572 623 633
b 213 123 132 273 295 313 342 362 401 411 470 530 554 569 623 633
b 214 123 132 273 295 308 313 342 362 401 408 411 468 470 530 554 565 569 623
b 215 123 132 273 295 308 342 362 401 408 468 530 554 565 569 623
b 216 96 308 313 408 411 468 470 565 567 569
b 217 96 217 408 411 468 470 567 569
b 218 217 408 411 567 568 569
b 219 217 408 410 411 567 568
b 220 108 408 410 567 568
b 221 96 217 468 469 470
b 222 96 308 313 565 566 567
b 223 96 308 309 313 566 567
b 224 212 309 313 566 567
b 225 123 132 266 273 295 308 342 353 362 401 408 464 468 522 530 554 565 623
b 226 15 132 201 266 273 353 362 464 468 522 530
b 227 15 132 201 266 272 273
b 228 15 201 266 268 272
b 229 9 15 132 197 201 353 362 464 468 522 530
b 230 9 15 197 201 464 466 468
b 231 9 15 464 465 466
b 232 197 201 466 467 468
b 233 9 15 132 197 201 353 362 522 529 530
b 234 9 15 132 197 201 522 524 529
b 235 132 197 201 524 528 529
b 236 197 201 524 525 528
b 237 9 15 522 523 524
b 238 9 197 353 359 362 529 530
b 239 94 359 362 529 530
b 240 9 197 353 355 359
b 241 411 412 414 571 572 623 633
b 242 74 412 414 571 572
b 243 231 411 412 623 633
b 244 247 313 316 569 571
b 245 18 136 181 215 572 575 577
b 246 18 215 575 576 577
b 247 136 181 572 574 575
b 248 18 181 215 474 475 477
b 249 18 215 475 476 477
b 250 136 181 215 235 415 417 419
b 251 136 181 415 416 417
b 252 215 235 417 418 419
b 253 176 220 235 362 365 477 479 481
b 254 235 362 365 477 478 479
b 255 88 362 365 477 478
b 256 176 220 479 480 481
b 257 176 365 366 369 634 635
b 258 53 365 366 634 635
b 259 193 319 321 322 369 370 635 637
b 260 319 321 369 370 635 636 637
b 261 225 319 321 635 636
b 262 22 369 370 636 637
b 263 175 370 371 534 535
b 264 58 193 249 371 377 378 641 643 656
b 265 58 371 374 377 641 643
b 266 207 371 374 641 643
b 267 193 249 377 378 643 646 656
b 268 193 249 643 645 646
b 269 14 377 378 646 656
b 270 241 244 585 586 587
b 271 149 177 241 282 283 492 494 542 544
b 272 177 241 492 493 494
b 273 149 177 542 543 544
b 274 111 254 330 331 333 500 502 659 663
b 275 111 330 331 659 661 663
b 276 202 330 331 659 661
b 277 254 331 333 500 501 502
b 278 45 331 333 501 502
b 279 104 123 200 511 512
b 280 111 145 167 174 191 200 333 338 505 509 590 596
b 281 111 145 174 191 505 507 509
b 282 111 174 505 506 507
b 283 145 191 507 508 509
b 284 167 174 200 333 338 590 594 596
b 285 167 174 333 337 338 590 594
b 286 174 333 337 590 593 594
b 287 174 333 336 337 593 594
b 288 238 336 337 593 594
b 289 167 200 594 595 596
b 290 123 266 295 299 308 342 353 401 408 457 460 464 522 554 560 565 616 623
b 291 123 266 295 299 342 353 401 405 408 457 460 462 464 522 554 560 613 616
b 292 405 407 408 460 462 613 616
b 293 97 407 408 613 616
b 294 405 406 407 460 461 462
b 295 84 405 406 461 462
b 296 222 406 407 460 461
b 297 299 306 308 457 460 560 563 565 616 623
b 298 306 308 563 564 565 616 619 623
b 299 12 564 565 619 623
b 300 306 307 308 563 564 616 619
b 301 143 307 308 563 564
b 302 189 306 307 616 619
b 303 299 305 306 457 460 560 562 563
b 304 170 305 306 562 563
b 305 299 304 305 457 459 460 560 562
b 306 138 304 305 459 460
b 307 146 299 303 304 457 459 560 562
b 308 146 299 303 457 458 459
b 309 146 299 302 303 457 458
b 310 248 299 302 457 458
b 311 146 303 304 560 561 562
b 312 135 303 304 561 562
b 313 50 123 266 295 299 342 353 401 405 457 462 463 464 522 554 560 613
b 314 50 123 265 266 295 299 342 353 401 405 457 463 464 522 554 560 613
b 315 7 265 266 463 464
b 316 33 50 101 123 226 265 295 299 342 353 401 405 457 522 554 560 613
b 317 33 50 101 112 117 123 203 226 265 342 353 457 522 610 613
b 318 33 50 101 112 117 203 226 265 454 457 522 610
b 319 33 50 101 112 117 203 265 454 518 522 610
b 320 50 112 117 518 521 522
b 321 112 117 518 520 521
b 322 33 50 101 203 265 454 517 518 610
b 323 33 50 154 203 265 452 454 517
b 324 33 154 452 453 454
b 325 50 154 203 262 265 452 517
b 326 50 154 262 264 265
b 327 154 203 262 452 516 517
b 328 139 164 203 262 452 516
b 329 139 164 262 515 516
b 330 139 164 261 262 515
b 331 139 164 203 451 452
b 332 101 203 517 518 603 610
b 333 155 517 518 603 610
b 334 112 117 226 454 456 457
b 335 112 226 454 455 456
b 336 112 117 123 203 342 351 353 610 613
b 337 63 351 353 610 613
b 338 112 117 123 203 342 347 351
b 339 112 117 347 348 351
b 340 123 203 342 344 347
b 341 33 101 226 295 299 401 405 554 556 560
b 342 101 226 401 405 556 557 560
b 343 101 226 557 559 560
b 344 101 401 402 405 556 557
b 345 134 401 402 556 557
b 346 33 226 295 296 299 554 556
b 347 33 295 296 554 555 556
b 348 199 295 296 554 555
b 349 33 226 296 297 299
b 350 204 667 668
b 351 666 667 668
b 352 130 666 667
b 353 185 662 663
b 354 56 660 661
b 355 211 655 656
b 356 647 655 656
b 357 151 654 655
b 358 647 654 655
b 359 31 653 654
b 360 647 653 654
b 361 41 652 653
b 362 647 652 653
b 363 80 651 652
b 364 647 651 652
b 365 107 650 651
b 366 647 650 651
b 367 100 649 650
b 368 647 649 650
b 369 48 648 649
b 370 647 648 649
b 371 103 647 648
b 372 39 644 645
b 373 257 642 643
b 374 73 640 641
b 375 62 632 633
b 376 624 632 633
b 377 82 631 632
b 378 624 631 632
b 379 109 630 631
b 380 624 630 631
b 381 92 629 630
b 382 624 629 630
b 383 3 628 629
b 384 624 628 629
b 385 184 627 628
b 386 624 627 628
b 387 240 626 627
b 388 624 626 627
b 389 160 625 626
b 390 624 625 626
b 391 35 624 625
b 392 27 622 623
b 393 620 622 623
b 394 38 621 622
b 395 620 621 622
b 396 64 620 621
b 397 165 618 619
b 398 617 618 619
b 399 171 617 618
b 400 158 615 616
b 401 614 615 616
b 402 5 614 615
b 403 2 612 613
b 404 611 612 613
b 405 131 611 612
b 406 95 609 610
b 407 604 609 610
b 408 173 608 609
b 409 604 608 609
b 410 43 607 608
b 411 604 607 608
b 412 186 606 607
b 413 604 606 607
b 414 32 605 606
b 415 604 605 606
b 416 246 604 605
b 417 10 592 593
b 418 591 592 593
b 419 122 591 592
b 420 258 588 589
b 421 159 582 583
b 422 192 578 579
b 423 242 573 574
b 424 150 570 571
b 425 230 558 559
b 426 179 553 554
b 427 118 541 542
b 428 8 537 538
b 429 536 537 538
b 430 221 536 537
b 431 140 527 528
b 432 526 527 528
b 433 65 526 527
b 434 219 519 520
b 435 66 435 436
b 436 433 435 436
b 437 85 434 435
b 438 433 434 435
b 439 228 433 434
b 440 46 430 431
b 441 89 428 429
b 442 168 426 427
b 443 420 426 427
b 444 141 425 426
b 445 420 425 426
b 446 34 424 425
b 447 420 424 425
b 448 127 423 424
b 449 420 423 424
b 450 119 422 423
b 451 420 422 423
b 452 25 421 422
b 453 420 421 422
b 454 195 420 421
b 455 224 413 414
b 456 93 409 410
b 457 51 404 405
b 458 403 404 405
b 459 17 403 404
b 460 218 400 401
b 461 227 398 399
b 462 395 398 399
b 463 183 397 398
b 464 395 397 398
b 465 37 396 397
b 466 395 396 397
b 467 69 395 396
b 468 251 392 393
b 469 390 392 393
b 470 81 391 392
b 471 390 391 392
b 472 71 390 391
b 473 232 383 384
b 474 78 381 382
b 475 129 376 377
b 476 375 376 377
b 477 59 375 376
b 478 243 373 374
b 479 372 373 374
b 480 214 372 373
b 481 55 368 369
b 482 367 368 369
b 483 6 367 368
b 484 133 364 365
b 485 363 364 365
b 486 68 363 364
b 487 182 361 362
b 488 360 361 362
b 489 21 360 361
b 490 116 358 359
b 491 356 358 359
b 492 210 357 358
b 493 356 357 358
b 494 233 356 357
b 495 83 354 355
b 496 156 352 353
b 497 54 350 351
b 498 349 350 351
b 499 153 349 350
b 500 239 346 347
b 501 345 346 347
b 502 99 345 346
b 503 172 343 344
b 504 126 341 342
b 505 60 335 336
b 506 334 335 336
b 507 36 334 335
b 508 236 332 333
b 509 245 329 330
b 510 152 325 326
b 511 120 320 321
b 512 190 318 319
b 513 67 315 316
b 514 314 315 316
b 515 114 314 315
b 516 162 312 313
b 517 310 312 313
b 518 30 311 312
b 519 310 311 312
b 520 124 310 311
b 521 121 301 302
b 522 300 301 302
b 523 76 300 301
b 524 187 298 299
b 525 110 294 295
b 526 292 294 295
b 527 216 293 294
b 528 292 293 294
b 529 125 292 293
b 530 256 290 291
b 531 288 290 291
b 532 198 289 290
b 533 288 289 290
b 534 4 288 289
b 535 29 286 287
b 536 19 281 282
b 537 209 278 279
b 538 79 271 272
b 539 269 271 272
b 540 49 270 271
b 541 269 270 271
b 542 42 269 270
b 543 16 267 268
b 544 24 263 264
b 545 169 601 602
b 546 203 601 602
b 547 203 600 601
b 548 252 600 601
b 549 203 599 600
b 550 139 513 514
b 551 139 449 450
b 552 139 259 260
1 549
2 552
3 550
4 551
5 6
6 7
7 8
8 9
9 10
10 11
11 12
12 13
13 14
14 15
15 16
16 17
17 207
18 552
18 89
19 544
19 326
20 543
20 228
21 539
21 228
22 537
22 172
23 536
23 176
24 535
24 121
25 531
25 112
26 526
26 112
27 524
27 349
28 522
28 310
29 517
29 224
30 514
30 244
31 512
31 210
32 511
32 261
33 510
33 161
34 509
34 140
35 508
35 278
36 506
36 287
37 504
37 106
38 503
38 340
39 501
39 340
40 498
40 339
41 496
41 337
42 495
42 240
43 491
43 240
44 488
44 239
45 485
45 255
46 482
46 257
47 479
47 266
48 476
48 265
49 474
49 151
50 473
50 135
51 469
51 117
52 462
52 104
53 460
53 103
54 458
54 344
55 456
55 220
56 455
56 242
57 443
57 186
58 441
58 164
59 440
59 127
60 436
60 97
61 551
61 331
62 550
62 89
63 434
63 321
64 432
64 236
65 429
65 174
66 427
66 175
67 426
67 109
68 425
68 343
69 424
69 244
70 423
70 247
71 422
71 189
72 421
72 191
73 420
73 126
74 418
74 286
75 546
75 332
76 407
76 333
77 404
77 337
78 401
78 293
79 398
79 302
80 393
80 299
81 376
81 243
82 374
82 191
83 373
83 266
84 372
84 268
85 356
85 269
86 354
86 276
87 353
87 275
88 351
88 108
89 330
90 92
90 91
92 280
92 93
93 279
93 94
94 98
94 95
95 96
95 97
98 113
98 99
99 112
99 100
100 101
101 102
101 110
102 109
102 105
102 103
103 104
105 106
105 108
106 107
110 111
113 123
113 114
114 115
114 119
115 118
115 116
116 117
119 120
119 122
120 121
123 124
124 274
124 125
125 129
125 126
126 127
127 128
129 132
129 130
130 131
132 133
133 147
133 134
134 136
134 135
136 137
136 141
137 140
137 138
138 139
141 146
141 142
142 145
142 143
143 144
147 271
147 148
148 155
148 149
149 151
149 150
151 152
152 154
152 153
155 270
155 156
156 163
156 157
157 158
158 162
158 159
159 160
160 161
163 164
164 165
165 177
165 166
166 167
166 176
167 173
167 168
168 169
168 170
170 171
171 172
173 174
173 175
177 264
177 178
178 179
179 263
179 180
180 259
180 181
181 186
181 183
181 182
183 185
183 184
186 187
187 193
187 188
188 190
188 189
190 191
190 192
193 194
194 195
195 257
195 196
196 253
196 197
197 250
197 198
198 248
198 199
199 245
199 200
200 204
200 201
201 202
202 203
204 208
204 205
205 207
205 206
208 209
209 211
209 210
211 244
211 212
212 241
212 214
212 213
214 225
214 216
214 215
216 217
216 222
217 221
217 218
218 219
219 220
222 223
223 224
225 290
225 226
226 229
226 227
227 228
229 233
229 230
230 232
230 231
233 238
233 234
234 235
234 237
235 236
238 240
238 239
241 243
241 242
245 246
245 247
248 249
250 252
250 251
253 256
253 254
254 255
257 258
259 260
260 262
260 261
264 267
264 265
265 266
267 268
267 269
271 273
271 272
274 275
274 277
275 276
277 278
280 281
280 284
281 282
281 283
284 289
284 285
285 286
286 287
287 288
290 297
290 291
291 313
291 292
292 294
292 293
294 295
294 296
297 303
297 298
298 299
298 300
300 301
300 302
303 304
303 305
305 306
305 307
307 308
307 311
308 309
309 310
311 312
313 314
314 316
314 315
316 341
316 317
317 318
317 336
318 334
318 319
319 322
319 320
320 321
322 332
322 323
323 324
323 325
325 326
325 327
327 328
328 329
328 331
329 330
332 333
334 335
336 337
336 338
338 339
338 340
341 342
341 346
342 343
342 344
344 345
346 347
346 349
347 348
350 351
351 352
355 356
356 358
357 358
358 360
359 360
360 362
361 362
362 364
363 364
364 366
365 366
366 368
367 368
368 370
369 370
370 371
375 376
376 378
377 378
378 380
379 380
380 382
381 382
382 384
383 384
384 386
385 386
386 388
387 388
388 390
389 390
390 391
392 393
393 395
394 395
395 396
397 398
398 399
400 401
401 402
403 404
404 405
406 407
407 409
408 409
409 411
410 411
411 413
412 413
413 415
414 415
415 416
417 418
418 419
428 429
429 430
431 432
432 433
435 436
436 438
437 438
438 439
442 443
443 445
444 445
445 447
446 447
447 449
448 449
449 451
450 451
451 453
452 453
453 454
457 458
458 459
461 462
462 464
463 464
464 466
465 466
466 467
468 469
469 471
470 471
471 472
475 476
476 477
478 479
479 480
481 482
482 483
484 485
485 486
487 488
488 489
490 491
491 493
492 493
493 494
497 498
498 499
500 501
501 502
505 506
506 507
513 514
514 515
516 517
517 519
518 519
519 520
521 522
522 523
525 526
526 528
527 528
528 529
530 531
531 533
532 533
533 534
538 539
539 541
540 541
541 542
545 546
546 547
547 549
547 548
